# LAMMPS input file to run a MLMD simulation for MLACS
#####################################
#           General parameters
#####################################
units        metal
boundary     p p p
atom_style atomic
read_data    atoms.in
mass      1  26.9815385
#####################################



#####################################
#           Interactions
#####################################
pair_style    snap
pair_coeff    * * /Users/alois/Documents/Physique/Work/Develop/mlacs/otf_mlacs/tutorials/Mlacs/1_simple_langevin/Snap/MLIP.model  /Users/alois/Documents/Physique/Work/Develop/mlacs/otf_mlacs/tutorials/Mlacs/1_simple_langevin/Snap/MLIP.descriptor Al
#####################################



#####################################
#      Thermostat/Integrator
#####################################
timestep      0.0015
fix  f1 all langevin 300 300  $(100*dt) 640197 gjf vhalf zero yes
fix    f2 all nph  iso 0.0 0.0 $(1000*dt)
fix    fcm all recenter INIT INIT INIT
#####################################



#####################################
#         Dump last step
#####################################
dump last all custom 500 configurations.out  id type xu yu zu vx vy vz fx fy fz element
dump_modify last element Al
dump_modify last delay 500
#####################################



run  500