# Lammps input to run MlMD created by MLACS

##########################
#     Initialization     #
##########################
units metal
boundary p p p
atom_style atomic
read_data atoms.in
mass 1  1.008
mass 2  15.999
mass 3  12.011
group C type 3

#######################
#     Interaction     #
#######################
pair_style pace
pair_coeff * * /home/nadeauo/software/mlacs/test/unit_test/mlip/ACE/ACE.yace H O C

######################
#     Thermostat     #
######################
timestep 1e-05
fix ff all store/force
fix f1 all langevin 500 500 $(100*dt) 6191195 gjf vhalf zero yes
fix f2 all nve
fix fcm all recenter INIT INIT INIT




run 5

###################################
#     Dump last configuration     #
###################################
dump last all custom 1 configurations.out id type xu yu zu vx vy vz fx fy fz element
dump_modify last element H O C
run 0